26897.0
1 0 1 1 1 1 1 0 1 0 1 0 1 0 0 0 0 0 1 1 1 1 0 0 1 1 0 1 1 0 
19 61 81 98 105 118 129 151 153 176 188 

4 29 94 126 156 175 182 190 191 197 
13 16 46 64 95 109 136 137 158 159 160 168 
10 28 32 43 60 84 104 106 111 124 167 174 178 
22 66 74 77 87 134 145 164 166 170 180 187 
35 42 55 86 91 97 183 192 193 199 

37 41 44 54 57 63 73 78 82 115 119 135 154 185 

12 24 75 80 85 139 152 162 173 177 179 

5 71 113 114 127 140 142 149 184 195 





0 8 15 20 25 40 58 62 70 103 194 196 
1 27 30 31 45 48 67 72 110 123 128 172 
17 36 49 76 120 133 171 198 
2 6 21 33 39 47 53 101 125 147 157 169 181 189 


23 38 50 51 52 79 107 131 146 150 163 
56 59 65 69 83 89 92 93 102 117 121 132 143 144 

3 7 18 26 34 88 108 112 141 148 161 165 
9 11 14 68 90 96 99 100 116 122 130 138 155 186 

